
Gurobi 6.5.2 (linux64) logging started Tue Sep  6 10:06:17 2016

Optimize a model with 41 rows, 77 columns and 155 nonzeros
Coefficient statistics:
  Matrix range    [1e+00, 2e+00]
  Objective range [6e+00, 1e+02]
  Bounds range    [1e+00, 1e+00]
  RHS range       [1e+00, 1e+00]
Found heuristic solution: objective 1045
Presolve removed 21 rows and 20 columns
Presolve time: 0.00s
Presolved: 20 rows, 57 columns, 114 nonzeros
Variable types: 0 continuous, 57 integer (57 binary)

Root relaxation: objective 6.120000e+02, 21 iterations, 0.00 seconds

    Nodes    |    Current Node    |     Objective Bounds      |     Work
 Expl Unexpl |  Obj  Depth IntInf | Incumbent    BestBd   Gap | It/Node Time

     0     0  612.00000    0    8 1045.00000  612.00000  41.4%     -    0s
     0     0  612.33333    0    8 1045.00000  612.33333  41.4%     -    0s
H    0     0                     669.0000000  612.33333  8.47%     -    0s
     0     2  612.33333    0    8  669.00000  612.33333  8.47%     -    0s
*    1     1               1     613.0000000  613.00000  0.00%   1.0    0s

Cutting planes:
  Gomory: 1
  Lazy constraints: 4

Explored 2 nodes (25 simplex iterations) in 0.01 seconds
Thread count was 8 (of 8 available processors)

Optimal solution found (tolerance 1.00e-04)
Best objective 6.130000000000e+02, best bound 6.130000000000e+02, gap 0.0%
